c colouring generated by benchmark framework
p edge 1284 6395
v 1 2
v 2 6
v 3 5
v 4 6
v 5 7
v 6 5
v 7 3
v 8 4
v 9 0
v 10 1
v 11 1
v 12 5
v 13 7
v 14 6
v 15 0
v 16 7
v 17 0
v 18 0
v 19 4
v 20 0
v 21 2
v 22 0
v 23 2
v 24 4
v 25 5
v 26 1
v 27 3
v 28 5
v 29 0
v 30 2
v 31 5
v 32 1
v 33 4
v 34 7
v 35 7
v 36 7
v 37 4
v 38 3
v 39 6
v 40 3
v 41 1
v 42 1
v 43 0
v 44 2
v 45 5
v 46 4
v 47 6
v 48 0
v 49 7
v 50 1
v 51 2
v 52 7
v 53 3
v 54 2
v 55 6
v 56 2
v 57 2
v 58 1
v 59 1
v 60 3
v 61 0
v 62 4
v 63 5
v 64 3
v 65 1
v 66 3
v 67 2
v 68 2
v 69 3
v 70 3
v 71 2
v 72 6
v 73 6
v 74 1
v 75 2
v 76 0
v 77 2
v 78 0
v 79 1
v 80 0
v 81 0
v 82 0
v 83 1
v 84 6
v 85 3
v 86 1
v 87 7
v 88 2
v 89 3
v 90 1
v 91 4
v 92 2
v 93 3
v 94 1
v 95 5
v 96 1
v 97 0
v 98 1
v 99 4
v 100 2
v 101 4
v 102 0
v 103 2
v 104 1
v 105 3
v 106 5
v 107 4
v 108 0
v 109 6
v 110 2
v 111 1
v 112 0
v 113 1
v 114 2
v 115 0
v 116 4
v 117 0
v 118 4
v 119 4
v 120 2
v 121 1
v 122 4
v 123 6
v 124 2
v 125 0
v 126 3
v 127 4
v 128 2
v 129 1
v 130 0
v 131 1
v 132 5
v 133 0
v 134 0
v 135 1
v 136 5
v 137 1
v 138 4
v 139 1
v 140 5
v 141 4
v 142 7
v 143 3
v 144 2
v 145 3
v 146 1
v 147 0
v 148 7
v 149 7
v 150 0
v 151 2
v 152 1
v 153 0
v 154 0
v 155 1
v 156 2
v 157 4
v 158 0
v 159 6
v 160 0
v 161 0
v 162 0
v 163 0
v 164 4
v 165 7
v 166 6
v 167 2
v 168 3
v 169 0
v 170 1
v 171 1
v 172 0
v 173 7
v 174 1
v 175 4
v 176 3
v 177 1
v 178 4
v 179 2
v 180 0
v 181 3
v 182 0
v 183 0
v 184 3
v 185 7
v 186 1
v 187 1
v 188 0
v 189 7
v 190 7
v 191 1
v 192 7
v 193 6
v 194 2
v 195 6
v 196 3
v 197 4
v 198 5
v 199 6
v 200 1
v 201 0
v 202 0
v 203 2
v 204 1
v 205 5
v 206 0
v 207 1
v 208 0
v 209 0
v 210 2
v 211 3
v 212 4
v 213 4
v 214 0
v 215 0
v 216 3
v 217 3
v 218 6
v 219 2
v 220 1
v 221 4
v 222 7
v 223 3
v 224 2
v 225 0
v 226 6
v 227 7
v 228 2
v 229 5
v 230 0
v 231 3
v 232 2
v 233 2
v 234 5
v 235 0
v 236 1
v 237 1
v 238 0
v 239 6
v 240 1
v 241 2
v 242 2
v 243 7
v 244 3
v 245 7
v 246 4
v 247 1
v 248 3
v 249 0
v 250 7
v 251 7
v 252 1
v 253 1
v 254 3
v 255 1
v 256 1
v 257 1
v 258 7
v 259 0
v 260 2
v 261 7
v 262 2
v 263 1
v 264 3
v 265 1
v 266 6
v 267 2
v 268 3
v 269 5
v 270 2
v 271 3
v 272 4
v 273 1
v 274 4
v 275 7
v 276 6
v 277 1
v 278 3
v 279 2
v 280 3
v 281 2
v 282 3
v 283 6
v 284 1
v 285 5
v 286 4
v 287 3
v 288 0
v 289 0
v 290 6
v 291 0
v 292 0
v 293 0
v 294 1
v 295 7
v 296 1
v 297 1
v 298 1
v 299 1
v 300 4
v 301 7
v 302 0
v 303 1
v 304 3
v 305 2
v 306 5
v 307 4
v 308 0
v 309 3
v 310 0
v 311 1
v 312 0
v 313 3
v 314 3
v 315 2
v 316 0
v 317 7
v 318 1
v 319 0
v 320 6
v 321 7
v 322 1
v 323 3
v 324 0
v 325 3
v 326 3
v 327 5
v 328 4
v 329 1
v 330 3
v 331 1
v 332 5
v 333 7
v 334 4
v 335 3
v 336 4
v 337 2
v 338 6
v 339 4
v 340 2
v 341 1
v 342 3
v 343 2
v 344 0
v 345 7
v 346 0
v 347 3
v 348 1
v 349 1
v 350 0
v 351 4
v 352 2
v 353 0
v 354 1
v 355 3
v 356 0
v 357 6
v 358 3
v 359 4
v 360 1
v 361 1
v 362 0
v 363 0
v 364 5
v 365 5
v 366 2
v 367 6
v 368 2
v 369 6
v 370 3
v 371 6
v 372 7
v 373 3
v 374 2
v 375 4
v 376 5
v 377 0
v 378 2
v 379 1
v 380 3
v 381 3
v 382 2
v 383 7
v 384 3
v 385 3
v 386 4
v 387 2
v 388 7
v 389 1
v 390 5
v 391 7
v 392 6
v 393 3
v 394 3
v 395 2
v 396 0
v 397 1
v 398 1
v 399 5
v 400 1
v 401 7
v 402 4
v 403 4
v 404 7
v 405 4
v 406 0
v 407 0
v 408 2
v 409 5
v 410 7
v 411 1
v 412 0
v 413 3
v 414 0
v 415 1
v 416 0
v 417 1
v 418 2
v 419 0
v 420 7
v 421 6
v 422 0
v 423 0
v 424 2
v 425 7
v 426 0
v 427 2
v 428 2
v 429 1
v 430 0
v 431 0
v 432 5
v 433 3
v 434 0
v 435 6
v 436 2
v 437 3
v 438 2
v 439 4
v 440 1
v 441 3
v 442 0
v 443 7
v 444 1
v 445 7
v 446 4
v 447 2
v 448 0
v 449 2
v 450 2
v 451 6
v 452 2
v 453 4
v 454 5
v 455 0
v 456 7
v 457 2
v 458 7
v 459 4
v 460 1
v 461 2
v 462 3
v 463 1
v 464 2
v 465 0
v 466 1
v 467 0
v 468 5
v 469 0
v 470 2
v 471 2
v 472 4
v 473 1
v 474 1
v 475 3
v 476 0
v 477 5
v 478 0
v 479 6
v 480 0
v 481 6
v 482 2
v 483 2
v 484 1
v 485 2
v 486 2
v 487 1
v 488 2
v 489 0
v 490 1
v 491 2
v 492 3
v 493 2
v 494 1
v 495 3
v 496 5
v 497 2
v 498 0
v 499 1
v 500 2
v 501 5
v 502 0
v 503 6
v 504 1
v 505 2
v 506 1
v 507 0
v 508 2
v 509 1
v 510 0
v 511 7
v 512 2
v 513 7
v 514 0
v 515 3
v 516 7
v 517 0
v 518 4
v 519 4
v 520 3
v 521 2
v 522 0
v 523 4
v 524 2
v 525 6
v 526 3
v 527 2
v 528 5
v 529 0
v 530 1
v 531 2
v 532 0
v 533 2
v 534 6
v 535 5
v 536 2
v 537 3
v 538 1
v 539 0
v 540 1
v 541 3
v 542 5
v 543 3
v 544 0
v 545 4
v 546 3
v 547 5
v 548 1
v 549 0
v 550 2
v 551 5
v 552 6
v 553 0
v 554 7
v 555 3
v 556 2
v 557 1
v 558 0
v 559 0
v 560 2
v 561 0
v 562 4
v 563 0
v 564 2
v 565 3
v 566 2
v 567 0
v 568 6
v 569 3
v 570 3
v 571 1
v 572 7
v 573 2
v 574 3
v 575 4
v 576 0
v 577 2
v 578 1
v 579 7
v 580 5
v 581 2
v 582 1
v 583 7
v 584 5
v 585 3
v 586 2
v 587 3
v 588 2
v 589 6
v 590 4
v 591 2
v 592 0
v 593 0
v 594 7
v 595 0
v 596 6
v 597 0
v 598 4
v 599 4
v 600 4
v 601 1
v 602 1
v 603 5
v 604 1
v 605 7
v 606 2
v 607 1
v 608 4
v 609 0
v 610 0
v 611 0
v 612 1
v 613 3
v 614 5
v 615 7
v 616 6
v 617 7
v 618 1
v 619 2
v 620 3
v 621 1
v 622 3
v 623 1
v 624 6
v 625 2
v 626 0
v 627 2
v 628 0
v 629 0
v 630 0
v 631 4
v 632 1
v 633 1
v 634 0
v 635 5
v 636 7
v 637 2
v 638 4
v 639 5
v 640 3
v 641 0
v 642 4
v 643 0
v 644 4
v 645 2
v 646 1
v 647 4
v 648 0
v 649 2
v 650 0
v 651 2
v 652 2
v 653 0
v 654 2
v 655 1
v 656 0
v 657 0
v 658 3
v 659 2
v 660 5
v 661 6
v 662 1
v 663 1
v 664 5
v 665 6
v 666 1
v 667 0
v 668 1
v 669 5
v 670 2
v 671 2
v 672 1
v 673 0
v 674 1
v 675 5
v 676 1
v 677 5
v 678 2
v 679 3
v 680 2
v 681 0
v 682 2
v 683 2
v 684 1
v 685 5
v 686 1
v 687 1
v 688 2
v 689 5
v 690 2
v 691 3
v 692 1
v 693 7
v 694 5
v 695 0
v 696 4
v 697 2
v 698 2
v 699 0
v 700 1
v 701 0
v 702 4
v 703 0
v 704 3
v 705 2
v 706 3
v 707 3
v 708 2
v 709 5
v 710 1
v 711 2
v 712 0
v 713 2
v 714 7
v 715 3
v 716 6
v 717 2
v 718 2
v 719 7
v 720 7
v 721 0
v 722 5
v 723 0
v 724 1
v 725 2
v 726 0
v 727 6
v 728 1
v 729 2
v 730 6
v 731 3
v 732 7
v 733 0
v 734 1
v 735 7
v 736 1
v 737 3
v 738 4
v 739 2
v 740 6
v 741 3
v 742 1
v 743 4
v 744 2
v 745 0
v 746 2
v 747 2
v 748 1
v 749 2
v 750 0
v 751 6
v 752 1
v 753 7
v 754 3
v 755 0
v 756 0
v 757 4
v 758 6
v 759 2
v 760 5
v 761 1
v 762 0
v 763 7
v 764 2
v 765 0
v 766 5
v 767 7
v 768 7
v 769 0
v 770 7
v 771 1
v 772 2
v 773 6
v 774 1
v 775 1
v 776 0
v 777 7
v 778 4
v 779 1
v 780 4
v 781 7
v 782 3
v 783 0
v 784 3
v 785 1
v 786 4
v 787 0
v 788 5
v 789 1
v 790 5
v 791 6
v 792 2
v 793 0
v 794 3
v 795 2
v 796 1
v 797 7
v 798 0
v 799 7
v 800 1
v 801 1
v 802 2
v 803 5
v 804 4
v 805 3
v 806 4
v 807 0
v 808 2
v 809 2
v 810 1
v 811 1
v 812 1
v 813 0
v 814 5
v 815 2
v 816 6
v 817 0
v 818 5
v 819 3
v 820 0
v 821 0
v 822 7
v 823 3
v 824 3
v 825 5
v 826 2
v 827 1
v 828 4
v 829 2
v 830 3
v 831 6
v 832 0
v 833 4
v 834 1
v 835 0
v 836 0
v 837 3
v 838 2
v 839 1
v 840 1
v 841 0
v 842 4
v 843 6
v 844 7
v 845 5
v 846 0
v 847 5
v 848 2
v 849 3
v 850 7
v 851 3
v 852 5
v 853 4
v 854 7
v 855 2
v 856 3
v 857 6
v 858 6
v 859 0
v 860 2
v 861 2
v 862 4
v 863 3
v 864 3
v 865 0
v 866 5
v 867 5
v 868 4
v 869 6
v 870 2
v 871 1
v 872 3
v 873 2
v 874 1
v 875 0
v 876 0
v 877 0
v 878 2
v 879 0
v 880 0
v 881 5
v 882 1
v 883 2
v 884 4
v 885 4
v 886 5
v 887 0
v 888 6
v 889 0
v 890 3
v 891 2
v 892 2
v 893 1
v 894 1
v 895 0
v 896 5
v 897 1
v 898 4
v 899 1
v 900 4
v 901 2
v 902 2
v 903 2
v 904 0
v 905 4
v 906 7
v 907 1
v 908 5
v 909 7
v 910 7
v 911 0
v 912 0
v 913 7
v 914 4
v 915 4
v 916 0
v 917 1
v 918 7
v 919 7
v 920 1
v 921 0
v 922 5
v 923 3
v 924 6
v 925 3
v 926 6
v 927 3
v 928 3
v 929 0
v 930 0
v 931 3
v 932 7
v 933 7
v 934 1
v 935 3
v 936 2
v 937 2
v 938 0
v 939 1
v 940 4
v 941 4
v 942 4
v 943 0
v 944 2
v 945 3
v 946 1
v 947 2
v 948 2
v 949 0
v 950 4
v 951 4
v 952 6
v 953 3
v 954 6
v 955 4
v 956 4
v 957 2
v 958 6
v 959 3
v 960 0
v 961 2
v 962 6
v 963 1
v 964 2
v 965 0
v 966 5
v 967 2
v 968 6
v 969 3
v 970 3
v 971 1
v 972 1
v 973 7
v 974 3
v 975 1
v 976 2
v 977 0
v 978 5
v 979 5
v 980 6
v 981 0
v 982 1
v 983 2
v 984 0
v 985 1
v 986 0
v 987 1
v 988 3
v 989 0
v 990 2
v 991 1
v 992 1
v 993 1
v 994 1
v 995 1
v 996 0
v 997 7
v 998 0
v 999 3
v 1000 2
v 1001 3
v 1002 1
v 1003 2
v 1004 4
v 1005 4
v 1006 0
v 1007 1
v 1008 7
v 1009 7
v 1010 2
v 1011 6
v 1012 0
v 1013 0
v 1014 3
v 1015 1
v 1016 7
v 1017 3
v 1018 2
v 1019 1
v 1020 1
v 1021 3
v 1022 6
v 1023 0
v 1024 1
v 1025 7
v 1026 4
v 1027 1
v 1028 0
v 1029 2
v 1030 7
v 1031 5
v 1032 2
v 1033 0
v 1034 3
v 1035 0
v 1036 7
v 1037 1
v 1038 1
v 1039 7
v 1040 1
v 1041 3
v 1042 2
v 1043 1
v 1044 2
v 1045 6
v 1046 4
v 1047 3
v 1048 7
v 1049 4
v 1050 5
v 1051 3
v 1052 0
v 1053 5
v 1054 1
v 1055 0
v 1056 2
v 1057 0
v 1058 2
v 1059 4
v 1060 6
v 1061 1
v 1062 7
v 1063 4
v 1064 6
v 1065 0
v 1066 4
v 1067 0
v 1068 7
v 1069 1
v 1070 2
v 1071 6
v 1072 5
v 1073 1
v 1074 1
v 1075 5
v 1076 0
v 1077 1
v 1078 5
v 1079 3
v 1080 3
v 1081 7
v 1082 4
v 1083 2
v 1084 2
v 1085 4
v 1086 0
v 1087 3
v 1088 5
v 1089 1
v 1090 0
v 1091 5
v 1092 5
v 1093 4
v 1094 3
v 1095 0
v 1096 7
v 1097 1
v 1098 6
v 1099 5
v 1100 2
v 1101 1
v 1102 6
v 1103 0
v 1104 0
v 1105 3
v 1106 0
v 1107 0
v 1108 4
v 1109 0
v 1110 6
v 1111 6
v 1112 4
v 1113 1
v 1114 0
v 1115 2
v 1116 0
v 1117 0
v 1118 1
v 1119 3
v 1120 2
v 1121 1
v 1122 2
v 1123 7
v 1124 2
v 1125 7
v 1126 5
v 1127 4
v 1128 3
v 1129 4
v 1130 1
v 1131 3
v 1132 6
v 1133 1
v 1134 6
v 1135 5
v 1136 3
v 1137 6
v 1138 0
v 1139 7
v 1140 4
v 1141 2
v 1142 7
v 1143 1
v 1144 4
v 1145 1
v 1146 0
v 1147 2
v 1148 3
v 1149 4
v 1150 4
v 1151 3
v 1152 1
v 1153 7
v 1154 7
v 1155 7
v 1156 3
v 1157 2
v 1158 3
v 1159 4
v 1160 0
v 1161 6
v 1162 0
v 1163 1
v 1164 6
v 1165 1
v 1166 0
v 1167 4
v 1168 0
v 1169 7
v 1170 7
v 1171 2
v 1172 6
v 1173 3
v 1174 1
v 1175 1
v 1176 0
v 1177 6
v 1178 1
v 1179 5
v 1180 3
v 1181 4
v 1182 4
v 1183 0
v 1184 4
v 1185 2
v 1186 2
v 1187 6
v 1188 2
v 1189 3
v 1190 5
v 1191 2
v 1192 7
v 1193 7
v 1194 0
v 1195 2
v 1196 5
v 1197 4
v 1198 3
v 1199 4
v 1200 6
v 1201 6
v 1202 0
v 1203 3
v 1204 6
v 1205 3
v 1206 1
v 1207 6
v 1208 0
v 1209 2
v 1210 0
v 1211 3
v 1212 3
v 1213 2
v 1214 0
v 1215 3
v 1216 6
v 1217 1
v 1218 1
v 1219 1
v 1220 5
v 1221 0
v 1222 1
v 1223 2
v 1224 5
v 1225 2
v 1226 6
v 1227 4
v 1228 2
v 1229 3
v 1230 6
v 1231 7
v 1232 5
v 1233 3
v 1234 0
v 1235 3
v 1236 4
v 1237 7
v 1238 7
v 1239 1
v 1240 7
v 1241 2
v 1242 0
v 1243 4
v 1244 0
v 1245 4
v 1246 4
v 1247 6
v 1248 3
v 1249 0
v 1250 0
v 1251 3
v 1252 0
v 1253 2
v 1254 3
v 1255 6
v 1256 4
v 1257 6
v 1258 6
v 1259 4
v 1260 0
v 1261 4
v 1262 5
v 1263 1
v 1264 5
v 1265 4
v 1266 4
v 1267 6
v 1268 2
v 1269 0
v 1270 7
v 1271 5
v 1272 0
v 1273 0
v 1274 1
v 1275 0
v 1276 6
v 1277 4
v 1278 4
v 1279 7
v 1280 1
v 1281 5
v 1282 2
v 1283 6
v 1284 4
